
  22   10
  10   10   10   10   10   10   10   10   10   10

   0   0   0   0   0   0   0   0   0   0   0   3 2 5 21 
   8  10  10  10  10  10  10  10  10  10  10   2 20 3 
   3  10  10  10  10  10  10  10  10  10  10   1 4 
   4  10  10  10  10  10  10  10  10  10  10   2 19 6 
   7  10  10  10  10  10  10  10  10  10  10   1 6 
   4  10  10  10  10  10  10  10  10  10  10   2 14 7 
   9  10  10  10  10  10  10  10  10  10  10   1 8 
   2  10  10  10  10  10  10  10  10  10  10   1 9 
  10  10  10  10  10  10  10  10  10  10  10   2 18 10 
   7  10  10  10  10  10  10  10  10  10  10   1 11 
   2  10  10  10  10  10  10  10  10  10  10   1 12 
   8  10  10  10  10  10  10  10  10  10  10   1 13 
   4  10  10  10  10  10  10  10  10  10  10   1 15 
   4  10  10  10  10  10  10  10  10  10  10   1 15 
   9  10  10  10  10  10  10  10  10  10  10   1 16 
   4  10  10  10  10  10  10  10  10  10  10   1 17 
   6  10  10  10  10  10  10  10  10  10  10   1 22
   3  10  10  10  10  10  10  10  10  10  10   1 22
   7  10  10  10  10  10  10  10  10  10  10   1 22
   8  10  10  10  10  10  10  10  10  10  10   1 22
  10  10  10  10  10  10  10  10  10  10  10   1 22
   0   0   0   0   0   0   0   0   0   0   0   0 
